32      4       
18      15      17      19      
0       0       0       0       0       1       2       
8       0       14      0       6       1       3       
9       9       0       12      0       1       4       
7       13      1       0       0       2       5       31      
3       0       15      0       19      2       6       30      
8       14      15      0       0       2       7       29      
5       0       15      0       13      1       8       
4       18      0       17      0       1       9       
6       0       10      13      0       1       10      
4       18      0       0       6       1       11      
5       0       0       14      18      1       12      
3       0       15      13      0       1       13      
2       5       0       8       0       1       14      
1       18      0       16      0       2       15      28      
7       8       15      0       0       2       16      27      
5       17      0       17      0       1       17      
7       3       7       0       0       2       18      26      
6       0       0       17      19      1       19      
9       18      0       0       19      1       20      
10      0       15      0       14      1       21      
3       0       0       6       15      1       22      
8       18      0       10      0       1       23      
7       8       8       0       0       1       24      
5       18      15      0       0       1       25      
5       0       0       17      19      1       32      
7       0       7       6       0       1       32      
8       0       0       8       9       1       32      
1       0       2       0       6       1       32      
5       18      0       0       19      1       32      
1       0       15      0       19      1       32      
1       0       0       17      13      1       32      
0       0       0       0       0       0       
